words_hard_train/4059.qaiger
aag 69 16 0 1 53
2
4
10
12
22
24
36
38
56
58
74
76
84
86
90
92
139
6 3 5
8 2 4
14 11 13
16 8 15
18 10 12
20 17 19
26 23 25
28 22 24
30 27 29
32 21 30
34 33 29
40 37 39
42 36 38
44 41 43
46 34 45
48 35 44
50 47 49
52 7 51
54 49 43
60 57 59
62 56 58
64 61 63
66 54 65
68 55 64
70 67 69
72 52 71
78 75 77
80 69 63
82 78 80
88 84 86
94 90 93
96 91 92
98 95 97
100 89 98
102 83 101
104 72 103
106 85 87
108 107 99
110 104 109
112 15 19
114 20 31
116 115 33
118 113 117
120 118 9
122 74 76
124 81 122
126 120 125
128 79 107
130 80 123
132 128 131
134 133 100
136 126 135
138 110 136
i0 2 y1[0]
i1 1 x2[0]
i2 2 y1[1]
i3 1 x2[1]
i4 2 y1[2]
i5 1 x2[2]
i6 2 y1[3]
i7 1 x2[3]
i8 2 y1[4]
i9 1 x2[4]
i10 2 y1[5]
i11 1 x2[5]
i12 2 y1[6]
i13 1 x2[6]
i14 2 y1[7]
i15 1 x2[7]
o0 bv[0]
c
simplified
  <
    reverse
      1
    subtract
      add
        2 y1
        1 x2
      1
