words_hard_train/4059.qaiger.qdimacs
p cnf 69 160
a 2 6 38 43 12 46 19 29 0
e 1 3 4 5 7 8 9 10 11 13 14 15 16 17 18 20 21 22 23 24 25 26 27 28 30 31 32 33 34 35 36 37 39 40 41 42 44 45 47 48 49 50 51 52 53 54 55 56 57 58 59 60 61 62 63 64 65 66 67 68 69 0
1 2 3 0
-1 -3 0
-2 -3 0
-1 -2 4 0
1 -4 0
2 -4 0
5 6 7 0
-5 -7 0
-6 -7 0
-4 7 8 0
4 -8 0
-7 -8 0
-5 -6 9 0
5 -9 0
6 -9 0
8 9 10 0
-8 -10 0
-9 -10 0
11 12 13 0
-11 -13 0
-12 -13 0
-11 -12 14 0
11 -14 0
12 -14 0
13 14 15 0
-13 -15 0
-14 -15 0
10 -15 16 0
-10 -16 0
15 -16 0
16 14 17 0
-16 -17 0
-14 -17 0
18 19 20 0
-18 -20 0
-19 -20 0
-18 -19 21 0
18 -21 0
19 -21 0
20 21 22 0
-20 -22 0
-21 -22 0
-17 22 23 0
17 -23 0
-22 -23 0
17 -22 24 0
-17 -24 0
22 -24 0
23 24 25 0
-23 -25 0
-24 -25 0
3 25 26 0
-3 -26 0
-25 -26 0
24 21 27 0
-24 -27 0
-21 -27 0
28 29 30 0
-28 -30 0
-29 -30 0
-28 -29 31 0
28 -31 0
29 -31 0
30 31 32 0
-30 -32 0
-31 -32 0
-27 32 33 0
27 -33 0
-32 -33 0
27 -32 34 0
-27 -34 0
32 -34 0
33 34 35 0
-33 -35 0
-34 -35 0
-26 35 36 0
26 -36 0
-35 -36 0
37 38 39 0
-37 -39 0
-38 -39 0
34 31 40 0
-34 -40 0
-31 -40 0
-39 -40 41 0
39 -41 0
40 -41 0
-42 -43 44 0
42 -44 0
43 -44 0
-45 46 47 0
45 -47 0
-46 -47 0
45 -46 48 0
-45 -48 0
46 -48 0
47 48 49 0
-47 -49 0
-48 -49 0
44 -49 50 0
-44 -50 0
49 -50 0
41 50 51 0
-41 -51 0
-50 -51 0
-36 51 52 0
36 -52 0
-51 -52 0
42 43 53 0
-42 -53 0
-43 -53 0
53 49 54 0
-53 -54 0
-49 -54 0
-52 54 55 0
52 -55 0
-54 -55 0
7 9 56 0
-7 -56 0
-9 -56 0
-10 15 57 0
10 -57 0
-15 -57 0
57 16 58 0
-57 -58 0
-16 -58 0
56 58 59 0
-56 -59 0
-58 -59 0
-59 4 60 0
59 -60 0
-4 -60 0
-37 -38 61 0
37 -61 0
38 -61 0
40 -61 62 0
-40 -62 0
61 -62 0
-60 62 63 0
60 -63 0
-62 -63 0
39 53 64 0
-39 -64 0
-53 -64 0
-40 61 65 0
40 -65 0
-61 -65 0
-64 65 66 0
64 -66 0
-65 -66 0
66 -50 67 0
-66 -67 0
50 -67 0
-63 67 68 0
63 -68 0
-67 -68 0
-55 -68 69 0
55 -69 0
68 -69 0
-69 0
